50
1 0 26
2 0 10
3 1 40
3 2 12
4 0 4
4 1 14
4 2 4
4 3 19
5 0 30
5 1 37
5 2 29
5 3 3
5 4 25
6 1 38
6 2 35
6 3 1
6 4 38
6 5 21
7 1 28
7 3 36
7 4 1
8 0 32
8 1 40
8 2 21
8 3 21
8 4 24
8 5 20
8 6 16
9 0 22
9 1 38
9 2 34
9 3 30
9 4 13
9 5 40
9 6 9
9 7 27
9 8 35
10 0 8
10 1 11
10 4 37
10 6 32
10 7 29
10 9 33
11 1 14
11 2 33
11 3 18
11 4 11
11 5 11
11 6 8
11 7 36
11 9 1
11 10 21
12 0 16
12 1 1
12 2 36
12 5 28
12 6 5
12 7 16
12 9 13
12 10 2
12 11 6
13 0 29
13 1 13
13 2 38
13 3 9
13 4 13
13 5 36
13 6 10
13 7 8
13 9 40
13 10 26
13 11 34
13 12 1
14 0 24
14 1 24
14 2 33
14 3 40
14 6 20
14 7 5
14 8 5
14 9 34
14 10 4
14 11 29
14 12 19
15 0 21
15 1 22
15 2 14
15 3 5
15 4 39
15 6 18
15 7 29
15 8 18
15 9 29
15 10 34
15 12 5
15 14 36
16 0 8
16 1 13
16 3 40
16 4 10
16 5 1
16 6 15
16 8 6
16 10 15
16 11 10
16 12 13
16 13 24
16 14 15
16 15 40
17 0 20
17 1 9
17 3 21
17 4 28
17 5 18
17 6 19
17 7 9
17 8 10
17 9 26
17 10 23
17 11 36
17 12 23
17 14 37
17 15 12
17 16 27
18 0 7
18 1 39
18 2 13
18 3 17
18 5 20
18 6 34
18 7 28
18 9 38
18 10 36
18 11 2
18 13 14
18 14 25
18 15 19
18 16 28
18 17 27
19 0 29
19 1 32
19 2 26
19 3 2
19 4 18
19 5 11
19 6 13
19 8 8
19 9 23
19 10 13
19 11 11
19 12 22
19 15 30
19 16 23
19 17 11
19 18 7
20 0 38
20 1 2
20 2 22
20 3 24
20 4 30
20 5 18
20 6 1
20 8 6
20 9 18
20 10 7
20 11 11
20 12 22
20 13 11
20 14 31
20 16 19
20 18 39
20 19 20
21 0 5
21 1 6
21 2 36
21 3 20
21 4 11
21 6 38
21 7 35
21 8 34
21 9 1
21 10 2
21 12 35
21 13 22
21 14 19
21 15 20
21 16 27
21 17 10
21 19 32
21 20 16
22 0 25
22 1 4
22 3 21
22 5 20
22 6 32
22 7 22
22 8 19
22 9 1
22 10 24
22 12 33
22 13 29
22 14 8
22 15 31
22 17 39
22 18 5
22 19 28
22 20 19
22 21 16
23 1 12
23 2 30
23 3 15
23 6 3
23 7 1
23 8 30
23 9 4
23 10 36
23 11 2
23 13 26
23 14 2
23 15 25
23 16 19
23 17 27
23 18 25
23 20 10
23 21 13
23 22 13
24 0 23
24 1 18
24 2 15
24 3 16
24 6 8
24 7 13
24 8 39
24 9 32
24 11 29
24 12 12
24 13 8
24 14 30
24 15 11
24 17 37
24 19 29
24 22 4
25 0 5
25 1 27
25 2 6
25 4 17
25 5 5
25 6 35
25 7 5
25 8 1
25 9 22
25 10 24
25 12 13
25 13 5
25 14 27
25 15 10
25 17 8
25 18 15
25 23 5
25 24 35
26 0 31
26 2 39
26 3 6
26 4 14
26 5 26
26 6 2
26 7 33
26 8 35
26 9 25
26 11 18
26 12 32
26 13 9
26 14 4
26 16 3
26 18 17
26 19 36
26 20 5
26 22 1
26 23 6
26 24 34
26 25 35
27 0 27
27 1 10
27 2 13
27 3 33
27 4 9
27 5 4
27 6 21
27 7 22
27 8 24
27 9 16
27 10 2
27 11 37
27 13 17
27 14 40
27 15 14
27 16 39
27 17 26
27 18 15
27 19 34
27 20 35
27 21 22
27 22 7
27 23 26
27 24 7
27 25 9
28 2 3
28 3 14
28 5 2
28 6 31
28 8 21
28 11 25
28 12 27
28 13 40
28 14 22
28 15 17
28 16 18
28 17 7
28 18 27
28 19 13
28 20 32
28 21 36
28 22 2
28 23 34
28 24 5
28 25 31
28 26 3
28 27 28
29 0 8
29 1 32
29 2 8
29 3 34
29 5 34
29 6 9
29 7 15
29 9 16
29 10 6
29 11 30
29 12 24
29 13 31
29 14 23
29 15 22
29 16 38
29 17 3
29 18 12
29 19 26
29 20 7
29 21 32
29 22 1
29 23 36
29 24 13
29 25 30
29 26 19
29 27 35
30 0 22
30 1 20
30 2 19
30 3 39
30 4 40
30 6 17
30 7 32
30 8 8
30 9 6
30 10 12
30 11 15
30 12 37
30 13 20
30 16 4
30 17 19
30 19 35
30 20 21
30 21 20
30 22 3
30 23 5
30 24 34
30 26 17
30 27 21
30 28 10
31 0 16
31 1 3
31 2 4
31 3 9
31 4 38
31 5 16
31 6 2
31 7 39
31 8 17
31 9 21
31 11 14
31 12 11
31 13 4
31 14 7
31 15 25
31 16 2
31 17 37
31 19 7
31 20 18
31 21 18
31 22 23
31 23 37
31 24 3
31 25 6
31 27 28
31 29 24
31 30 25
32 0 7
32 1 30
32 2 3
32 3 6
32 5 18
32 6 11
32 7 12
32 8 25
32 9 30
32 10 12
32 11 32
32 12 20
32 13 16
32 14 32
32 15 25
32 16 31
32 17 12
32 18 38
32 19 3
32 20 22
32 21 33
32 22 24
32 23 13
32 24 15
32 25 4
32 26 17
32 27 24
32 28 18
32 29 29
32 30 28
32 31 26
33 0 36
33 1 8
33 2 28
33 4 19
33 5 1
33 7 17
33 8 25
33 9 9
33 10 33
33 13 3
33 15 14
33 16 26
33 18 6
33 19 5
33 20 12
33 22 9
33 23 8
33 24 39
33 25 6
33 26 21
33 27 29
33 28 29
33 29 26
33 31 15
33 32 34
34 0 9
34 1 23
34 2 2
34 3 35
34 4 11
34 5 9
34 7 2
34 8 7
34 10 1
34 11 37
34 13 28
34 15 27
34 16 35
34 18 40
34 21 11
34 22 33
34 23 19
34 24 12
34 26 24
34 28 27
34 29 29
34 30 17
34 32 20
34 33 6
35 0 33
35 2 11
35 3 39
35 4 25
35 6 5
35 7 7
35 9 26
35 11 6
35 12 18
35 13 7
35 14 11
35 16 29
35 17 4
35 19 6
35 20 8
35 21 3
35 23 24
35 24 11
35 25 33
35 26 33
35 27 24
35 28 29
35 29 8
35 30 3
35 31 33
35 32 34
35 33 20
35 34 2
36 0 13
36 1 1
36 6 7
36 7 8
36 8 14
36 10 19
36 12 8
36 13 38
36 14 1
36 15 11
36 16 13
36 17 17
36 18 31
36 19 34
36 20 5
36 21 29
36 22 13
36 23 28
36 27 11
36 28 5
36 30 19
36 32 24
36 33 13
36 34 30
36 35 13
37 0 36
37 1 4
37 2 36
37 3 38
37 4 7
37 5 29
37 6 2
37 7 7
37 9 29
37 10 38
37 12 38
37 13 14
37 14 7
37 18 9
37 19 26
37 20 29
37 21 23
37 22 19
37 23 9
37 24 11
37 25 21
37 26 35
37 27 33
37 30 25
37 31 33
37 32 25
37 33 38
37 35 25
37 36 14
38 0 3
38 1 32
38 4 23
38 5 5
38 6 17
38 8 27
38 9 28
38 10 25
38 11 14
38 12 29
38 15 3
38 16 7
38 17 37
38 18 33
38 20 26
38 22 10
38 23 2
38 24 18
38 25 1
38 26 36
38 28 31
38 29 22
38 30 1
38 31 31
38 32 29
38 33 7
38 34 8
38 35 30
38 37 7
39 0 26
39 1 25
39 3 4
39 4 22
39 5 34
39 6 5
39 7 15
39 8 26
39 10 3
39 11 20
39 12 31
39 13 26
39 14 32
39 17 26
39 18 37
39 19 26
39 20 39
39 21 13
39 22 2
39 24 32
39 25 32
39 27 38
39 28 23
39 29 29
39 30 19
39 31 34
39 33 19
39 34 21
39 35 12
39 37 33
39 38 12
40 0 18
40 1 3
40 2 37
40 3 5
40 4 26
40 6 20
40 7 12
40 8 36
40 9 7
40 11 18
40 12 25
40 13 39
40 14 28
40 15 4
40 16 10
40 17 37
40 18 18
40 19 2
40 21 32
40 22 3
40 23 25
40 25 17
40 26 30
40 28 2
40 29 8
40 31 10
40 32 1
40 33 25
40 34 22
40 35 21
40 36 6
40 37 37
40 39 36
41 1 34
41 2 17
41 3 20
41 5 9
41 6 32
41 7 35
41 9 4
41 10 8
41 11 23
41 12 29
41 13 40
41 14 26
41 15 20
41 16 26
41 19 8
41 20 32
41 21 32
41 22 28
41 23 5
41 24 18
41 26 33
41 27 27
41 29 12
41 30 40
41 31 32
41 32 32
41 35 16
41 36 25
41 38 18
41 40 25
42 0 8
42 2 21
42 4 22
42 5 24
42 7 25
42 8 15
42 9 28
42 10 23
42 11 34
42 12 16
42 13 22
42 14 17
42 16 7
42 17 21
42 18 34
42 19 5
42 21 21
42 23 11
42 24 24
42 25 27
42 26 14
42 27 40
42 28 11
42 29 23
42 31 7
42 32 28
42 33 3
42 36 39
42 37 5
42 38 13
42 40 21
43 0 20
43 1 25
43 2 22
43 4 10
43 5 30
43 6 6
43 7 4
43 8 22
43 9 17
43 10 30
43 11 30
43 13 8
43 16 5
43 17 18
43 18 19
43 22 35
43 23 33
43 24 37
43 25 28
43 26 4
43 27 1
43 28 17
43 29 33
43 31 14
43 32 31
43 33 32
43 35 16
43 36 4
43 37 9
43 39 36
43 40 17
43 41 5
43 42 20
44 0 20
44 1 19
44 2 6
44 4 2
44 6 5
44 7 7
44 8 24
44 9 1
44 10 3
44 11 38
44 14 40
44 15 9
44 18 16
44 21 39
44 23 23
44 25 26
44 28 40
44 29 34
44 30 21
44 31 13
44 33 21
44 34 20
44 35 29
44 36 23
44 37 21
44 38 32
44 39 14
44 40 9
44 42 29
44 43 18
45 1 23
45 2 37
45 3 4
45 4 16
45 5 10
45 6 17
45 7 22
45 8 24
45 11 14
45 12 30
45 13 28
45 14 39
45 15 15
45 16 8
45 17 9
45 18 39
45 19 10
45 20 23
45 21 22
45 22 29
45 23 26
45 25 11
45 26 14
45 27 23
45 28 31
45 30 35
45 31 38
45 33 12
45 36 37
45 37 4
45 38 10
45 40 7
45 41 40
45 42 2
45 43 18
45 44 33
46 0 8
46 1 5
46 2 16
46 3 27
46 4 30
46 5 25
46 6 22
46 7 5
46 8 17
46 9 4
46 11 6
46 12 37
46 13 9
46 15 21
46 16 8
46 17 9
46 18 35
46 19 8
46 20 11
46 21 24
46 22 29
46 23 38
46 24 9
46 25 4
46 26 6
46 27 23
46 28 35
46 29 11
46 30 11
46 31 11
46 32 39
46 33 27
46 34 37
46 35 31
46 36 19
46 37 14
46 38 32
46 39 22
46 40 5
46 41 23
46 42 38
46 43 11
46 44 33
46 45 4
47 0 10
47 1 38
47 2 17
47 3 25
47 4 26
47 5 11
47 6 37
47 7 36
47 8 17
47 9 21
47 10 23
47 11 3
47 12 20
47 13 21
47 14 30
47 15 3
47 16 36
47 17 34
47 19 20
47 21 34
47 23 5
47 25 30
47 26 30
47 29 17
47 31 3
47 32 26
47 33 7
47 35 19
47 36 30
47 37 14
47 38 7
47 39 2
47 40 18
47 43 17
47 44 34
47 45 25
48 2 38
48 3 6
48 5 4
48 8 38
48 9 21
48 10 35
48 11 32
48 12 9
48 13 21
48 15 23
48 16 10
48 17 17
48 18 13
48 19 10
48 20 28
48 21 27
48 22 37
48 23 28
48 24 9
48 25 32
48 27 13
48 28 23
48 29 6
48 31 27
48 32 34
48 33 7
48 34 11
48 35 32
48 38 15
48 39 2
48 41 35
48 42 30
48 43 33
48 46 29
48 47 10
49 0 36
49 1 23
49 3 21
49 4 14
49 5 10
49 6 18
49 7 7
49 8 2
49 9 26
49 10 16
49 11 37
49 13 35
49 15 20
49 16 2
49 17 39
49 18 21
49 19 10
49 20 20
49 22 23
49 24 24
49 25 4
49 26 2
49 27 17
49 28 37
49 29 5
49 30 21
49 32 14
49 33 21
49 34 39
49 35 32
49 36 38
49 38 23
49 39 35
49 40 20
49 41 33
49 42 36
49 43 29
49 44 32
49 46 16
49 47 27
49 48 6
